 Generator version 2019.08.01. K-point grid has 45 total points and 15 distinct points. Actual minimum periodic distance is 20.53746727325451 Angstroms. Grid includes gamma point. 
15
Fractional
0.00000000000000 0.00000000000000 0.00000000000000 1.0 ! 1
0.20000000000000 0.95555555555556 0.66666666666667 4.0 ! 2
0.40000000000000 0.91111111111111 0.33333333333333 4.0 ! 3
0.60000000000000 0.86666666666667 0.00000000000000 4.0 ! 4
0.80000000000000 0.82222222222222 0.66666666666667 4.0 ! 5
0.00000000000000 0.77777777777778 0.33333333333333 2.0 ! 6
0.20000000000000 0.73333333333333 0.00000000000000 4.0 ! 7
0.60000000000000 0.64444444444444 0.33333333333333 4.0 ! 8
0.80000000000000 0.60000000000000 0.00000000000000 2.0 ! 9
0.00000000000000 0.55555555555556 0.66666666666667 2.0 ! 10
0.20000000000001 0.51111111111111 0.33333333333333 4.0 ! 11
0.60000000000001 0.42222222222222 0.66666666666667 4.0 ! 12
0.00000000000001 0.33333333333333 0.00000000000000 2.0 ! 13
0.60000000000001 0.20000000000000 0.00000000000000 2.0 ! 14
0.00000000000001 0.11111111111111 0.33333333333333 2.0 ! 15
Tetrahedra
68    0.003703703703703704
4    1   2   6   15   
4    1   2   6   7   
4    1   2   7   15   
4    1   2   7   7   
4    1   6   7   13   
4    1   7   13   15   
2    2   2   15   15   
2    2   2   3   3   
4    2   2   3   5   
4    2   2   5   15   
4    2   3   12   14   
4    2   3   3   12   
4    2   3   5   12   
4    2   3   5   7   
4    2   3   7   14   
4    2   5   11   12   
4    2   5   6   11   
4    2   5   6   15   
4    2   5   7   15   
4    2   6   15   15   
4    2   6   7   11   
4    2   7   11   12   
4    2   7   12   14   
4    2   7   7   14   
4    3   3   8   12   
2    3   3   8   8   
4    3   4   4   12   
4    3   4   4   14   
4    3   4   5   7   
4    3   4   5   8   
4    3   4   7   14   
8    3   4   8   12   
4    3   4   8   14   
4    3   5   8   12   
8    3   8   12   12   
4    3   8   12   14   
4    3   8   8   12   
4    4   4   12   14   
4    4   4   8   14   
4    4   4   8   9   
4    4   5   7   9   
4    4   5   8   9   
4    4   7   11   12   
4    4   7   12   14   
4    4   7   9   11   
4    4   8   11   12   
4    4   8   12   14   
4    4   8   9   11   
4    5   6   10   11   
4    5   6   10   15   
4    5   7   13   15   
4    5   7   9   13   
4    5   8   11   11   
4    5   8   11   12   
4    5   8   9   11   
4    5   9   10   11   
4    5   9   10   13   
4    5   10   11   11   
4    5   10   13   15   
4    6   7   11   13   
4    6   10   11   13   
4    6   10   10   11   
4    7   9   11   13   
2    8   8   11   11   
4    8   8   11   12   
4    9   10   11   13   
4    9   10   13   13   
2    10   10   11   11   
