 Generator version 2019.08.01. K-point grid has 9 total points and 4 distinct points. Actual minimum periodic distance is 10.390261341756519 Angstroms. Grid includes gamma point. 
4
Fractional
0.00000000000000 0.00000000000000 0.00000000000000 1.0 ! 1
0.33333333333333 0.00000000000000 0.66666666666667 4.0 ! 2
0.00000000000000 0.33333333333333 0.33333333333333 2.0 ! 3
0.33333333333333 0.33333333333333 0.00000000000000 2.0 ! 4
Tetrahedra
9    0.018518518518518517
4    1   2   2   4   
8    1   2   3   3   
8    1   2   3   4   
4    1   3   3   4   
2    2   2   2   2   
8    2   2   2   4   
4    2   2   3   3   
8    2   2   3   4   
8    2   2   4   4   
