 Generator version 2019.08.01. K-point grid has 96 total points and 22 distinct points. Actual minimum periodic distance is 10.816653826391969 Angstroms. Grid includes gamma point. 
22
Fractional
0.00000000000000 0.00000000000000 0.00000000000000 1.0 ! 1
0.02083333333333 0.16666666666667 0.75000000000000 8.0 ! 2
0.04166666666667 0.33333333333333 0.50000000000000 8.0 ! 3
0.06250000000000 0.50000000000000 0.25000000000000 8.0 ! 4
0.08333333333333 0.66666666666667 0.00000000000000 4.0 ! 5
0.10416666666667 0.83333333333333 0.75000000000000 8.0 ! 6
0.12500000000000 0.00000000000000 0.50000000000000 4.0 ! 7
0.16666666666667 0.33333333333333 0.00000000000000 2.0 ! 8
0.18750000000000 0.50000000000000 0.75000000000000 8.0 ! 9
0.22916666666667 0.83333333333333 0.25000000000000 8.0 ! 10
0.25000000000000 0.00000000000000 0.00000000000000 2.0 ! 11
0.33333333333333 0.66666666666667 0.00000000000000 2.0 ! 12
0.35416666666667 0.83333333333333 0.75000000000000 8.0 ! 13
0.50000000000000 0.00000000000000 0.00000000000000 1.0 ! 14
0.50000000000000 0.00000000000000 0.50000000000000 2.0 ! 15
0.54166666666667 0.33333333333333 0.00000000000000 4.0 ! 16
0.58333333333333 0.66666666666667 0.50000000000000 4.0 ! 17
0.62500000000000 0.00000000000000 0.00000000000000 2.0 ! 18
0.66666666666667 0.33333333333333 0.50000000000000 4.0 ! 19
0.70833333333333 0.66666666666667 0.00000000000000 4.0 ! 20
0.75000000000000 0.00000000000000 0.50000000000000 2.0 ! 21
0.87500000000000 0.00000000000000 0.00000000000000 2.0 ! 22
Tetrahedra
123    0.001736111111111111
4    1   2   17   21   
4    1   2   2   2   
4    1   2   2   21   
4    1   2   2   8   
4    1   2   8   17   
4    1   2   8   21   
4    12   13   13   14   
4    12   13   14   17   
4    12   13   14   21   
4    12   13   17   21   
4    13   13   13   14   
4    13   13   13   18   
4    13   13   14   21   
4    13   13   16   18   
4    13   14   17   21   
4    2   13   13   21   
8    2   13   17   21   
4    2   2   13   21   
4    2   2   20   22   
4    2   2   2   22   
4    2   2   7   13   
4    2   2   7   22   
4    2   2   8   9   
4    2   2   9   20   
4    2   3   20   22   
8    2   3   7   13   
4    2   3   7   20   
4    2   3   7   22   
8    2   3   9   13   
8    2   3   9   20   
4    2   3   9   9   
4    2   7   13   13   
4    2   7   20   22   
4    2   8   17   21   
8    2   8   9   17   
4    2   8   9   9   
8    2   9   13   17   
4    2   9   9   17   
4    2   9   9   20   
4    3   13   16   18   
4    3   3   4   16   
4    3   3   4   20   
4    3   3   4   4   
4    3   3   9   16   
4    3   3   9   20   
4    3   3   9   9   
8    3   4   16   20   
4    3   4   4   6   
4    3   4   4   10   
8    3   4   6   16   
8    3   4   6   10   
8    3   4   10   20   
4    3   6   16   18   
4    3   6   7   16   
4    3   6   7   18   
8    3   6   7   10   
4    3   7   13   16   
4    3   7   13   18   
4    3   7   10   20   
4    3   7   10   22   
8    3   9   13   16   
8    3   9   16   20   
4    3   9   9   13   
4    3   10   20   22   
4    4   4   16   20   
4    4   4   19   19   
4    4   4   5   5   
4    4   4   5   6   
4    4   4   5   10   
4    4   4   6   16   
4    4   4   6   19   
4    4   4   10   19   
4    4   4   10   20   
8    4   5   19   19   
8    4   5   5   19   
8    4   5   6   19   
4    4   5   6   6   
8    4   5   10   19   
4    4   5   10   10   
4    4   6   6   16   
8    4   6   10   19   
4    4   10   10   20   
4    5   6   11   15   
4    5   6   11   19   
4    5   6   15   19   
4    5   6   6   11   
4    5   10   11   15   
4    5   10   11   19   
4    5   10   15   19   
4    5   10   10   11   
4    6   11   15   19   
4    6   6   11   15   
4    6   6   16   18   
4    6   6   6   11   
4    6   6   6   18   
4    6   6   7   18   
4    6   6   7   10   
4    6   6   10   15   
4    6   7   16   18   
4    6   7   10   10   
8    6   10   15   19   
4    6   10   10   15   
4    7   13   13   18   
4    7   13   16   18   
4    7   10   20   22   
4    7   10   10   22   
8    8   9   12   17   
4    8   9   17   17   
4    8   9   9   12   
4    9   12   13   13   
8    9   12   13   17   
4    9   12   17   17   
4    9   13   13   16   
4    9   9   12   13   
4    9   9   13   16   
4    9   9   13   17   
4    9   9   16   20   
4    9   9   17   17   
4    10   11   15   19   
4    10   10   11   15   
4    10   10   20   22   
4    10   10   10   11   
4    10   10   10   22   
