 Generator version 2019.08.01. K-point grid has 180 total points and 29 distinct points. Actual minimum periodic distance is 20.12461179749811 Angstroms. Grid includes gamma point. 
29
Fractional
0.00000000000000 0.00000000000000 0.00000000000000 1.0 ! 1
0.05000000000000 0.83333333333333 0.16666666666667 8.0 ! 2
0.10000000000000 0.66666666666667 0.33333333333333 8.0 ! 3
0.15000000000000 0.50000000000000 0.50000000000000 4.0 ! 4
0.20000000000000 0.33333333333333 0.66666666666667 8.0 ! 5
0.25000000000000 0.16666666666667 0.83333333333333 8.0 ! 6
0.30000000000000 0.00000000000000 0.00000000000000 2.0 ! 7
0.35000000000000 0.83333333333333 0.16666666666667 8.0 ! 8
0.40000000000000 0.66666666666667 0.33333333333333 8.0 ! 9
0.45000000000000 0.50000000000000 0.50000000000000 4.0 ! 10
0.50000000000000 0.33333333333333 0.66666666666667 4.0 ! 11
0.55000000000000 0.16666666666667 0.83333333333333 8.0 ! 12
0.60000000000000 0.00000000000000 0.00000000000000 2.0 ! 13
0.70000000000000 0.66666666666667 0.33333333333333 8.0 ! 14
0.75000000000000 0.50000000000000 0.50000000000000 2.0 ! 15
0.85000000000000 0.16666666666667 0.83333333333333 8.0 ! 16
0.90000000000000 0.00000000000000 0.00000000000000 2.0 ! 17
0.00000000000000 0.66666666666667 0.33333333333333 4.0 ! 18
0.20000000000000 0.00000000000000 0.00000000000000 2.0 ! 19
0.50000000000000 0.00000000000000 0.00000000000000 1.0 ! 20
0.36666666666667 0.33333333333333 0.00000000000000 8.0 ! 21
0.46666666666667 0.00000000000000 0.33333333333333 8.0 ! 22
0.51666666666667 0.83333333333333 0.50000000000000 16.0 ! 23
0.61666666666667 0.50000000000000 0.83333333333333 16.0 ! 24
0.66666666666667 0.33333333333333 0.00000000000000 4.0 ! 25
0.76666666666667 0.00000000000000 0.33333333333333 8.0 ! 26
0.91666666666667 0.50000000000000 0.83333333333333 8.0 ! 27
0.06666666666667 0.00000000000000 0.33333333333333 8.0 ! 28
0.16666666666667 0.33333333333333 0.00000000000000 4.0 ! 29
Tetrahedra
82    9.25925925925926E-4
8    1   2   2   17   
16    1   2   2   29   
8    11   12   12   25   
16    11   12   24   25   
8    11   18   24   24   
8    11   24   24   25   
8    12   12   13   20   
8    12   12   13   26   
16    12   12   20   25   
8    12   12   25   26   
16    12   24   25   26   
16    14   22   23   27   
8    16   16   17   19   
8    16   16   17   28   
8    16   16   19   21   
8    16   16   21   28   
16    16   21   23   28   
8    18   24   24   29   
16    2   16   17   28   
16    2   18   24   29   
8    2   2   17   28   
8    2   2   18   29   
8    2   2   28   29   
16    2   24   28   29   
16    2   3   16   28   
16    2   3   18   24   
16    2   3   24   28   
8    21   22   23   23   
16    21   22   23   27   
16    21   22   27   27   
8    21   23   23   28   
8    22   23   23   26   
8    23   23   26   28   
16    23   24   26   28   
8    24   24   25   26   
16    24   24   25   29   
8    24   24   26   28   
8    24   24   28   29   
16    3   16   23   28   
16    3   23   24   28   
16    3   4   5   23   
16    3   4   9   23   
16    3   4   9   10   
16    3   5   16   23   
16    3   9   23   24   
16    3   9   10   24   
16    3   10   18   24   
16    4   5   14   15   
16    4   5   14   23   
16    4   9   14   23   
32    5   14   15   27   
16    5   14   23   27   
16    5   16   21   23   
16    5   21   23   27   
16    5   6   14   27   
16    5   6   16   21   
16    5   6   21   27   
16    6   14   22   27   
16    6   16   19   21   
16    6   21   22   27   
8    6   6   19   21   
8    6   6   21   22   
8    6   6   7   19   
8    6   6   7   22   
16    6   7   8   22   
16    6   8   14   22   
8    7   8   8   13   
8    7   8   8   22   
16    8   12   13   26   
16    8   14   22   23   
16    8   22   23   26   
8    8   8   13   26   
8    8   8   22   26   
16    8   9   12   26   
16    8   9   14   23   
16    8   9   23   26   
16    9   11   12   24   
16    9   12   24   26   
16    9   23   24   26   
16    9   10   11   24   
16    10   11   18   24   
8    10   10   11   18   
