 Generator version 2019.08.01. K-point grid has 108 total points and 16 distinct points. Actual minimum periodic distance is 24.699910541335974 Angstroms. Grid includes gamma point. 
16
Fractional
0.00000000000000 0.00000000000000 0.00000000000000 1.0 ! 1
0.00000000000000 0.16666666666667 0.16666666666667 6.0 ! 2
0.00000000000000 0.33333333333333 0.33333333333333 6.0 ! 3
0.00000000000000 0.50000000000000 0.50000000000000 3.0 ! 4
0.16666666666667 0.00000000000000 0.33333333333333 6.0 ! 5
0.16666666666667 0.16666666666667 0.50000000000000 12.0 ! 6
0.16666666666667 0.33333333333333 0.66666666666667 12.0 ! 7
0.16666666666667 0.50000000000000 0.83333333333333 12.0 ! 8
0.16666666666667 0.66666666666667 0.00000000000000 6.0 ! 9
0.33333333333333 0.00000000000000 0.66666666666667 6.0 ! 10
0.33333333333333 0.33333333333333 0.00000000000000 6.0 ! 11
0.00000000000000 0.00000000000000 0.66666666666667 2.0 ! 12
0.00000000000000 0.33333333333333 0.00000000000000 6.0 ! 13
0.00000000000000 0.50000000000000 0.16666666666667 6.0 ! 14
0.00000000000000 0.83333333333333 0.50000000000000 6.0 ! 15
0.33333333333333 0.16666666666667 0.50000000000000 12.0 ! 16
Tetrahedra
56    0.0015432098765432098
12    1   2   2   5   
12    1   2   5   12   
6    11   11   16   16   
6    12   12   15   15   
12    13   14   14   16   
6    14   14   16   16   
12    2   2   5   9   
12    2   3   6   15   
12    2   3   6   9   
12    2   3   9   13   
12    2   5   12   15   
12    2   5   6   15   
12    2   5   6   9   
12    2   5   9   13   
12    3   4   7   8   
12    3   4   7   10   
12    3   4   8   14   
12    3   6   7   8   
12    3   6   7   10   
12    3   6   8   9   
12    3   6   10   15   
12    3   8   13   14   
12    3   8   9   13   
12    4   7   7   8   
12    4   7   8   14   
12    4   7   10   14   
12    5   12   15   15   
12    5   6   15   15   
12    5   6   9   13   
12    5   6   10   13   
12    5   6   10   15   
6    6   6   15   15   
6    6   6   7   7   
12    6   6   7   10   
12    6   6   10   15   
12    6   7   7   16   
12    6   7   8   16   
12    6   7   10   16   
12    6   8   9   16   
12    6   9   13   16   
12    6   10   13   16   
6    7   7   11   11   
12    7   7   11   16   
12    7   7   8   11   
12    7   8   11   11   
24    7   8   11   16   
12    7   8   14   16   
12    7   10   14   16   
12    8   11   11   16   
12    8   11   16   16   
12    8   13   14   16   
12    8   14   16   16   
12    8   8   11   16   
12    8   8   9   16   
12    8   9   13   16   
12    10   13   14   16   
